! Solving for graph ../../../benchmarks/abp/Q-494_bus.mtx.rnd
! Target value is set to 227
 ! --------------------------------------------------- CP Optimizer 22.2.0.0 --
 ! Minimization problem - 495 variables, 1081 constraints, 1 phase
 ! TimeLimit            = 1800
 ! LogVerbosity         = Terse
 ! Initial process time : 0.01s (0.01s extraction + 0.00s propagation)
 !  . Log search space  : 4428.6 (before), 4428.6 (after)
 !  . Memory usage      : 755.6 kB (before), 755.6 kB (after)
 ! Using parallel search with 8 workers.
 ! ----------------------------------------------------------------------------
 !          Best Branches  Non-fixed    W       Branch decision
                        0        495                 -
 + New bound is 228
                        2        494    1   F     1 != _int245
 + New bound is 229
 ! ----------------------------------------------------------------------------
 ! Search terminated by limit, no solution found.
 ! Best bound             : 229
 ! ----------------------------------------------------------------------------
 ! Number of branches     : 105321756
 ! Number of fails        : 49911729
 ! Total memory usage     : 319.7 MB (319.3 MB CP Optimizer + 0.4 MB Concert)
 ! Time spent in solve    : 1800.01s (1800.00s engine + 0.01s extraction)
 ! Search speed (br. / s) : 58512.1
 ! ----------------------------------------------------------------------------
! --------------------------------------------------------
! No solution
! --------------------------------------------------------
